small
0 32 0.69
1 33 0.47
2 31 0.57
3 27 0.69
4 33 0.6
5 30 0.62
6 28 0.46
7 26 0.42
8 25 0.7
9 30 0.73
10 29 0.71
11 34 0.44
12 25 0.8
13 26 0.54
14 28 0.78
medium
0 275 55.91
1 264 55.33
2 277 43.76
3 290 34.43
4 262 87.76
5 256 49.73
6 279 64.48
7 274 63.73
8 295 64.61
9 282 75.78
10 270 64.81
11 300 46.08
12 278 55.02
13 250 46.51
14 283 59.0
large
0 1457 592.21
1 1432 594.88
2 1527 593.31
3 1509 590.97
4 1493 600.83
5 1443 600.63
6 1529 600.73
7 1498 600.06
8 1497 600.1
9 1464 600.51
10 1431 600.74
11 1509 600.95
12 1458 600.01
13 1433 584.06
14 1520 600.39
